sat
(
(define-fun sym6582 () String "K")
(define-fun sym807 () String "K")
(define-fun sym7456 () String "K")
(define-fun sym7830 () String "K")
(define-fun sym6369 () String "K")
(define-fun sym7018 () String "K")
(define-fun sym205 () String "Y")
(define-fun sym547 () String "K")
(define-fun sym6802 () String "H")
(define-fun sym1446 () String "K")
(define-fun sym1865 () String "K")
(define-fun sym2514 () String "K")
(define-fun sym5744 () String "K")
(define-fun sym4236 () String "K")
(define-fun sym2078 () String "K")
(define-fun sym5103 () String "K")
(define-fun sym3187 () String "R")
(define-fun sym1020 () String "K")
(define-fun sym6170 () String "K")
(define-fun sym161 () String "A")
(define-fun sym4691 () String "K")
(define-fun sym8013 () String "K")
(define-fun sym2291 () String "H")
(define-fun sym7225 () String "K")
(define-fun sym7647 () String "K")
(define-fun sym1659 () String "K")
(define-fun sym4904 () String "K")
(define-fun sym2727 () String "K")
(define-fun sym5957 () String "K")
(define-fun sym2940 () String "K")
(define-fun sym3810 () String "K")
(define-fun sym5316 () String "H")
(define-fun sym3611 () String "K")
(define-fun sym1233 () String "K")
(define-fun sym4465 () String "R")
(define-fun sym3396 () String "H")
(define-fun sym5531 () String "K")
(define-fun sym4023 () String "K")
)
